
(set-logic HORN)
(declare-rel assign_26_10_282_abs (Int Int Int Int Int Int Int Int Int Int))
(declare-rel assert_25_3_273_abs (Int Int Int Int Int Int Int Int Int Int))
(declare-rel while_22_8_285_abs (Int Int Int Int Int Int Int Int Int Int))
(declare-rel assign_20_8_187_abs (Int Int Int Int Int Int Int Int Int Int))
(declare-rel assign_18_1_151_abs (Int Int Int Int Int Int Int Int Int Int))
(declare-rel assign_15_5_112_abs (Int Int Int Int Int Int Int Int Int Int))
(declare-rel arrayassign_14_5_103_abs (Int Int Int Int Int Int Int Int Int Int))
(declare-rel while_12_1_115_abs (Int Int Int Int Int Int Int Int Int Int))
(declare-rel assign_11_1_46_abs (Int Int Int Int Int Int Int Int Int Int))
(declare-rel end_abs (Int Int Int Int Int Int Int Int Int Int))
(declare-rel start_abs (Int Int Int Int Int Int Int Int Int Int));Number of predicates (nodes) = 11
;Number of variables = 4
;Number of clauses = 14
;
(assert (forall ( (dest (Array Int Int)) (source (Array Int Int)) (l Int) (i Int) (i1 Int) (i2 Int) (i3 Int) (i4 Int)) (start_abs i4 (select dest i4) i3 (select dest i3) i2 (select source i2) i1 (select source i1) l i)))
(assert (forall ( (i Int) (l Int) (source (Array Int Int)) (dest (Array Int Int)) (i1 Int) (i2 Int) (i3 Int) (i4 Int)) (=> (and (start_abs i3 (select dest i3) i3 (select dest i3) i1 (select source i1) i1 (select source i1) l i) (start_abs i3 (select dest i3) i3 (select dest i3) i1 (select source i1) i2 (select source i2) l i) (start_abs i3 (select dest i3) i3 (select dest i3) i2 (select source i2) i1 (select source i1) l i) (start_abs i3 (select dest i3) i3 (select dest i3) i2 (select source i2) i2 (select source i2) l i) (start_abs i3 (select dest i3) i4 (select dest i4) i1 (select source i1) i1 (select source i1) l i) (start_abs i3 (select dest i3) i4 (select dest i4) i1 (select source i1) i2 (select source i2) l i) (start_abs i3 (select dest i3) i4 (select dest i4) i2 (select source i2) i1 (select source i1) l i) (start_abs i3 (select dest i3) i4 (select dest i4) i2 (select source i2) i2 (select source i2) l i) (start_abs i4 (select dest i4) i3 (select dest i3) i1 (select source i1) i1 (select source i1) l i) (start_abs i4 (select dest i4) i3 (select dest i3) i1 (select source i1) i2 (select source i2) l i) (start_abs i4 (select dest i4) i3 (select dest i3) i2 (select source i2) i1 (select source i1) l i) (start_abs i4 (select dest i4) i3 (select dest i3) i2 (select source i2) i2 (select source i2) l i) (start_abs i4 (select dest i4) i4 (select dest i4) i1 (select source i1) i1 (select source i1) l i) (start_abs i4 (select dest i4) i4 (select dest i4) i1 (select source i1) i2 (select source i2) l i) (start_abs i4 (select dest i4) i4 (select dest i4) i2 (select source i2) i1 (select source i1) l i) (start_abs i4 (select dest i4) i4 (select dest i4) i2 (select source i2) i2 (select source i2) l i)) (assign_11_1_46_abs i4 (select dest i4) i3 (select dest i3) i2 (select source i2) i1 (select source i1) l i))))
;
;(assign)  i := 0
(assert (forall ( (i Int) (l Int) (source (Array Int Int)) (dest (Array Int Int)) (i1 Int) (i2 Int) (i3 Int) (i4 Int)) (=> (and (assign_11_1_46_abs i3 (select dest i3) i3 (select dest i3) i1 (select source i1) i1 (select source i1) l i) (assign_11_1_46_abs i3 (select dest i3) i3 (select dest i3) i1 (select source i1) i2 (select source i2) l i) (assign_11_1_46_abs i3 (select dest i3) i3 (select dest i3) i2 (select source i2) i1 (select source i1) l i) (assign_11_1_46_abs i3 (select dest i3) i3 (select dest i3) i2 (select source i2) i2 (select source i2) l i) (assign_11_1_46_abs i3 (select dest i3) i4 (select dest i4) i1 (select source i1) i1 (select source i1) l i) (assign_11_1_46_abs i3 (select dest i3) i4 (select dest i4) i1 (select source i1) i2 (select source i2) l i) (assign_11_1_46_abs i3 (select dest i3) i4 (select dest i4) i2 (select source i2) i1 (select source i1) l i) (assign_11_1_46_abs i3 (select dest i3) i4 (select dest i4) i2 (select source i2) i2 (select source i2) l i) (assign_11_1_46_abs i4 (select dest i4) i3 (select dest i3) i1 (select source i1) i1 (select source i1) l i) (assign_11_1_46_abs i4 (select dest i4) i3 (select dest i3) i1 (select source i1) i2 (select source i2) l i) (assign_11_1_46_abs i4 (select dest i4) i3 (select dest i3) i2 (select source i2) i1 (select source i1) l i) (assign_11_1_46_abs i4 (select dest i4) i3 (select dest i3) i2 (select source i2) i2 (select source i2) l i) (assign_11_1_46_abs i4 (select dest i4) i4 (select dest i4) i1 (select source i1) i1 (select source i1) l i) (assign_11_1_46_abs i4 (select dest i4) i4 (select dest i4) i1 (select source i1) i2 (select source i2) l i) (assign_11_1_46_abs i4 (select dest i4) i4 (select dest i4) i2 (select source i2) i1 (select source i1) l i) (assign_11_1_46_abs i4 (select dest i4) i4 (select dest i4) i2 (select source i2) i2 (select source i2) l i)) (while_12_1_115_abs i4 (select dest i4) i3 (select dest i3) i2 (select source i2) i1 (select source i1) l 0))))
;
;(while)   while((!(source[i]==0)))
(assert (forall ( (dest (Array Int Int)) (source (Array Int Int)) (l Int) (i Int) (i1 Int) (i2 Int) (i3 Int) (i4 Int)) (=> (and (while_12_1_115_abs i3 (select dest i3) i3 (select dest i3) i (select source i) i (select source i) l i) (while_12_1_115_abs i3 (select dest i3) i3 (select dest i3) i (select source i) i1 (select source i1) l i) (while_12_1_115_abs i3 (select dest i3) i3 (select dest i3) i (select source i) i2 (select source i2) l i) (while_12_1_115_abs i3 (select dest i3) i3 (select dest i3) i1 (select source i1) i (select source i) l i) (while_12_1_115_abs i3 (select dest i3) i3 (select dest i3) i1 (select source i1) i1 (select source i1) l i) (while_12_1_115_abs i3 (select dest i3) i3 (select dest i3) i1 (select source i1) i2 (select source i2) l i) (while_12_1_115_abs i3 (select dest i3) i3 (select dest i3) i2 (select source i2) i (select source i) l i) (while_12_1_115_abs i3 (select dest i3) i3 (select dest i3) i2 (select source i2) i1 (select source i1) l i) (while_12_1_115_abs i3 (select dest i3) i3 (select dest i3) i2 (select source i2) i2 (select source i2) l i) (while_12_1_115_abs i3 (select dest i3) i4 (select dest i4) i (select source i) i (select source i) l i) (while_12_1_115_abs i3 (select dest i3) i4 (select dest i4) i (select source i) i1 (select source i1) l i) (while_12_1_115_abs i3 (select dest i3) i4 (select dest i4) i (select source i) i2 (select source i2) l i) (while_12_1_115_abs i3 (select dest i3) i4 (select dest i4) i1 (select source i1) i (select source i) l i) (while_12_1_115_abs i3 (select dest i3) i4 (select dest i4) i1 (select source i1) i1 (select source i1) l i) (while_12_1_115_abs i3 (select dest i3) i4 (select dest i4) i1 (select source i1) i2 (select source i2) l i) (while_12_1_115_abs i3 (select dest i3) i4 (select dest i4) i2 (select source i2) i (select source i) l i) (while_12_1_115_abs i3 (select dest i3) i4 (select dest i4) i2 (select source i2) i1 (select source i1) l i) (while_12_1_115_abs i3 (select dest i3) i4 (select dest i4) i2 (select source i2) i2 (select source i2) l i) (while_12_1_115_abs i4 (select dest i4) i3 (select dest i3) i (select source i) i (select source i) l i) (while_12_1_115_abs i4 (select dest i4) i3 (select dest i3) i (select source i) i1 (select source i1) l i) (while_12_1_115_abs i4 (select dest i4) i3 (select dest i3) i (select source i) i2 (select source i2) l i) (while_12_1_115_abs i4 (select dest i4) i3 (select dest i3) i1 (select source i1) i (select source i) l i) (while_12_1_115_abs i4 (select dest i4) i3 (select dest i3) i1 (select source i1) i1 (select source i1) l i) (while_12_1_115_abs i4 (select dest i4) i3 (select dest i3) i1 (select source i1) i2 (select source i2) l i) (while_12_1_115_abs i4 (select dest i4) i3 (select dest i3) i2 (select source i2) i (select source i) l i) (while_12_1_115_abs i4 (select dest i4) i3 (select dest i3) i2 (select source i2) i1 (select source i1) l i) (while_12_1_115_abs i4 (select dest i4) i3 (select dest i3) i2 (select source i2) i2 (select source i2) l i) (while_12_1_115_abs i4 (select dest i4) i4 (select dest i4) i (select source i) i (select source i) l i) (while_12_1_115_abs i4 (select dest i4) i4 (select dest i4) i (select source i) i1 (select source i1) l i) (while_12_1_115_abs i4 (select dest i4) i4 (select dest i4) i (select source i) i2 (select source i2) l i) (while_12_1_115_abs i4 (select dest i4) i4 (select dest i4) i1 (select source i1) i (select source i) l i) (while_12_1_115_abs i4 (select dest i4) i4 (select dest i4) i1 (select source i1) i1 (select source i1) l i) (while_12_1_115_abs i4 (select dest i4) i4 (select dest i4) i1 (select source i1) i2 (select source i2) l i) (while_12_1_115_abs i4 (select dest i4) i4 (select dest i4) i2 (select source i2) i (select source i) l i) (while_12_1_115_abs i4 (select dest i4) i4 (select dest i4) i2 (select source i2) i1 (select source i1) l i) (while_12_1_115_abs i4 (select dest i4) i4 (select dest i4) i2 (select source i2) i2 (select source i2) l i) (not (= 0 (select source i)))) (arrayassign_14_5_103_abs i4 (select dest i4) i3 (select dest i3) i2 (select source i2) i1 (select source i1) l i))))
(assert (forall ( (dest (Array Int Int)) (source (Array Int Int)) (l Int) (i Int) (i1 Int) (i2 Int) (i3 Int) (i4 Int)) (=> (and (while_12_1_115_abs i3 (select dest i3) i3 (select dest i3) i (select source i) i (select source i) l i) (while_12_1_115_abs i3 (select dest i3) i3 (select dest i3) i (select source i) i1 (select source i1) l i) (while_12_1_115_abs i3 (select dest i3) i3 (select dest i3) i (select source i) i2 (select source i2) l i) (while_12_1_115_abs i3 (select dest i3) i3 (select dest i3) i1 (select source i1) i (select source i) l i) (while_12_1_115_abs i3 (select dest i3) i3 (select dest i3) i1 (select source i1) i1 (select source i1) l i) (while_12_1_115_abs i3 (select dest i3) i3 (select dest i3) i1 (select source i1) i2 (select source i2) l i) (while_12_1_115_abs i3 (select dest i3) i3 (select dest i3) i2 (select source i2) i (select source i) l i) (while_12_1_115_abs i3 (select dest i3) i3 (select dest i3) i2 (select source i2) i1 (select source i1) l i) (while_12_1_115_abs i3 (select dest i3) i3 (select dest i3) i2 (select source i2) i2 (select source i2) l i) (while_12_1_115_abs i3 (select dest i3) i4 (select dest i4) i (select source i) i (select source i) l i) (while_12_1_115_abs i3 (select dest i3) i4 (select dest i4) i (select source i) i1 (select source i1) l i) (while_12_1_115_abs i3 (select dest i3) i4 (select dest i4) i (select source i) i2 (select source i2) l i) (while_12_1_115_abs i3 (select dest i3) i4 (select dest i4) i1 (select source i1) i (select source i) l i) (while_12_1_115_abs i3 (select dest i3) i4 (select dest i4) i1 (select source i1) i1 (select source i1) l i) (while_12_1_115_abs i3 (select dest i3) i4 (select dest i4) i1 (select source i1) i2 (select source i2) l i) (while_12_1_115_abs i3 (select dest i3) i4 (select dest i4) i2 (select source i2) i (select source i) l i) (while_12_1_115_abs i3 (select dest i3) i4 (select dest i4) i2 (select source i2) i1 (select source i1) l i) (while_12_1_115_abs i3 (select dest i3) i4 (select dest i4) i2 (select source i2) i2 (select source i2) l i) (while_12_1_115_abs i4 (select dest i4) i3 (select dest i3) i (select source i) i (select source i) l i) (while_12_1_115_abs i4 (select dest i4) i3 (select dest i3) i (select source i) i1 (select source i1) l i) (while_12_1_115_abs i4 (select dest i4) i3 (select dest i3) i (select source i) i2 (select source i2) l i) (while_12_1_115_abs i4 (select dest i4) i3 (select dest i3) i1 (select source i1) i (select source i) l i) (while_12_1_115_abs i4 (select dest i4) i3 (select dest i3) i1 (select source i1) i1 (select source i1) l i) (while_12_1_115_abs i4 (select dest i4) i3 (select dest i3) i1 (select source i1) i2 (select source i2) l i) (while_12_1_115_abs i4 (select dest i4) i3 (select dest i3) i2 (select source i2) i (select source i) l i) (while_12_1_115_abs i4 (select dest i4) i3 (select dest i3) i2 (select source i2) i1 (select source i1) l i) (while_12_1_115_abs i4 (select dest i4) i3 (select dest i3) i2 (select source i2) i2 (select source i2) l i) (while_12_1_115_abs i4 (select dest i4) i4 (select dest i4) i (select source i) i (select source i) l i) (while_12_1_115_abs i4 (select dest i4) i4 (select dest i4) i (select source i) i1 (select source i1) l i) (while_12_1_115_abs i4 (select dest i4) i4 (select dest i4) i (select source i) i2 (select source i2) l i) (while_12_1_115_abs i4 (select dest i4) i4 (select dest i4) i1 (select source i1) i (select source i) l i) (while_12_1_115_abs i4 (select dest i4) i4 (select dest i4) i1 (select source i1) i1 (select source i1) l i) (while_12_1_115_abs i4 (select dest i4) i4 (select dest i4) i1 (select source i1) i2 (select source i2) l i) (while_12_1_115_abs i4 (select dest i4) i4 (select dest i4) i2 (select source i2) i (select source i) l i) (while_12_1_115_abs i4 (select dest i4) i4 (select dest i4) i2 (select source i2) i1 (select source i1) l i) (while_12_1_115_abs i4 (select dest i4) i4 (select dest i4) i2 (select source i2) i2 (select source i2) l i) (not (not (= 0 (select source i))))) (assign_18_1_151_abs i4 (select dest i4) i3 (select dest i3) i2 (select source i2) i1 (select source i1) l i))))
;
;(aassign) dest[i] := source[i]
(assert (forall ( (i Int) (l Int) (source (Array Int Int)) (dest (Array Int Int)) (i1 Int) (i2 Int) (i3 Int) (i4 Int)) (=> (and (arrayassign_14_5_103_abs i3 (select dest i3) i3 (select dest i3) i (select source i) i (select source i) l i) (arrayassign_14_5_103_abs i3 (select dest i3) i3 (select dest i3) i (select source i) i1 (select source i1) l i) (arrayassign_14_5_103_abs i3 (select dest i3) i3 (select dest i3) i (select source i) i2 (select source i2) l i) (arrayassign_14_5_103_abs i3 (select dest i3) i3 (select dest i3) i1 (select source i1) i (select source i) l i) (arrayassign_14_5_103_abs i3 (select dest i3) i3 (select dest i3) i1 (select source i1) i1 (select source i1) l i) (arrayassign_14_5_103_abs i3 (select dest i3) i3 (select dest i3) i1 (select source i1) i2 (select source i2) l i) (arrayassign_14_5_103_abs i3 (select dest i3) i3 (select dest i3) i2 (select source i2) i (select source i) l i) (arrayassign_14_5_103_abs i3 (select dest i3) i3 (select dest i3) i2 (select source i2) i1 (select source i1) l i) (arrayassign_14_5_103_abs i3 (select dest i3) i3 (select dest i3) i2 (select source i2) i2 (select source i2) l i) (arrayassign_14_5_103_abs i3 (select dest i3) i4 (select dest i4) i (select source i) i (select source i) l i) (arrayassign_14_5_103_abs i3 (select dest i3) i4 (select dest i4) i (select source i) i1 (select source i1) l i) (arrayassign_14_5_103_abs i3 (select dest i3) i4 (select dest i4) i (select source i) i2 (select source i2) l i) (arrayassign_14_5_103_abs i3 (select dest i3) i4 (select dest i4) i1 (select source i1) i (select source i) l i) (arrayassign_14_5_103_abs i3 (select dest i3) i4 (select dest i4) i1 (select source i1) i1 (select source i1) l i) (arrayassign_14_5_103_abs i3 (select dest i3) i4 (select dest i4) i1 (select source i1) i2 (select source i2) l i) (arrayassign_14_5_103_abs i3 (select dest i3) i4 (select dest i4) i2 (select source i2) i (select source i) l i) (arrayassign_14_5_103_abs i3 (select dest i3) i4 (select dest i4) i2 (select source i2) i1 (select source i1) l i) (arrayassign_14_5_103_abs i3 (select dest i3) i4 (select dest i4) i2 (select source i2) i2 (select source i2) l i) (arrayassign_14_5_103_abs i4 (select dest i4) i3 (select dest i3) i (select source i) i (select source i) l i) (arrayassign_14_5_103_abs i4 (select dest i4) i3 (select dest i3) i (select source i) i1 (select source i1) l i) (arrayassign_14_5_103_abs i4 (select dest i4) i3 (select dest i3) i (select source i) i2 (select source i2) l i) (arrayassign_14_5_103_abs i4 (select dest i4) i3 (select dest i3) i1 (select source i1) i (select source i) l i) (arrayassign_14_5_103_abs i4 (select dest i4) i3 (select dest i3) i1 (select source i1) i1 (select source i1) l i) (arrayassign_14_5_103_abs i4 (select dest i4) i3 (select dest i3) i1 (select source i1) i2 (select source i2) l i) (arrayassign_14_5_103_abs i4 (select dest i4) i3 (select dest i3) i2 (select source i2) i (select source i) l i) (arrayassign_14_5_103_abs i4 (select dest i4) i3 (select dest i3) i2 (select source i2) i1 (select source i1) l i) (arrayassign_14_5_103_abs i4 (select dest i4) i3 (select dest i3) i2 (select source i2) i2 (select source i2) l i) (arrayassign_14_5_103_abs i4 (select dest i4) i4 (select dest i4) i (select source i) i (select source i) l i) (arrayassign_14_5_103_abs i4 (select dest i4) i4 (select dest i4) i (select source i) i1 (select source i1) l i) (arrayassign_14_5_103_abs i4 (select dest i4) i4 (select dest i4) i (select source i) i2 (select source i2) l i) (arrayassign_14_5_103_abs i4 (select dest i4) i4 (select dest i4) i1 (select source i1) i (select source i) l i) (arrayassign_14_5_103_abs i4 (select dest i4) i4 (select dest i4) i1 (select source i1) i1 (select source i1) l i) (arrayassign_14_5_103_abs i4 (select dest i4) i4 (select dest i4) i1 (select source i1) i2 (select source i2) l i) (arrayassign_14_5_103_abs i4 (select dest i4) i4 (select dest i4) i2 (select source i2) i (select source i) l i) (arrayassign_14_5_103_abs i4 (select dest i4) i4 (select dest i4) i2 (select source i2) i1 (select source i1) l i) (arrayassign_14_5_103_abs i4 (select dest i4) i4 (select dest i4) i2 (select source i2) i2 (select source i2) l i)) (assign_15_5_112_abs i4 (ite (= i i4) (select source i) (select dest i4)) i3 (ite (= i i3) (select source i) (select dest i3)) i2 (select source i2) i1 (select source i1) l i))))
;
;(assign)  i := (i+1)
(assert (forall ( (i Int) (l Int) (source (Array Int Int)) (dest (Array Int Int)) (i1 Int) (i2 Int) (i3 Int) (i4 Int)) (=> (and (assign_15_5_112_abs i3 (select dest i3) i3 (select dest i3) i1 (select source i1) i1 (select source i1) l i) (assign_15_5_112_abs i3 (select dest i3) i3 (select dest i3) i1 (select source i1) i2 (select source i2) l i) (assign_15_5_112_abs i3 (select dest i3) i3 (select dest i3) i2 (select source i2) i1 (select source i1) l i) (assign_15_5_112_abs i3 (select dest i3) i3 (select dest i3) i2 (select source i2) i2 (select source i2) l i) (assign_15_5_112_abs i3 (select dest i3) i4 (select dest i4) i1 (select source i1) i1 (select source i1) l i) (assign_15_5_112_abs i3 (select dest i3) i4 (select dest i4) i1 (select source i1) i2 (select source i2) l i) (assign_15_5_112_abs i3 (select dest i3) i4 (select dest i4) i2 (select source i2) i1 (select source i1) l i) (assign_15_5_112_abs i3 (select dest i3) i4 (select dest i4) i2 (select source i2) i2 (select source i2) l i) (assign_15_5_112_abs i4 (select dest i4) i3 (select dest i3) i1 (select source i1) i1 (select source i1) l i) (assign_15_5_112_abs i4 (select dest i4) i3 (select dest i3) i1 (select source i1) i2 (select source i2) l i) (assign_15_5_112_abs i4 (select dest i4) i3 (select dest i3) i2 (select source i2) i1 (select source i1) l i) (assign_15_5_112_abs i4 (select dest i4) i3 (select dest i3) i2 (select source i2) i2 (select source i2) l i) (assign_15_5_112_abs i4 (select dest i4) i4 (select dest i4) i1 (select source i1) i1 (select source i1) l i) (assign_15_5_112_abs i4 (select dest i4) i4 (select dest i4) i1 (select source i1) i2 (select source i2) l i) (assign_15_5_112_abs i4 (select dest i4) i4 (select dest i4) i2 (select source i2) i1 (select source i1) l i) (assign_15_5_112_abs i4 (select dest i4) i4 (select dest i4) i2 (select source i2) i2 (select source i2) l i)) (while_12_1_115_abs i4 (select dest i4) i3 (select dest i3) i2 (select source i2) i1 (select source i1) l (+ i 1)))))
;
;(assign)  l := i
(assert (forall ( (i Int) (l Int) (source (Array Int Int)) (dest (Array Int Int)) (i1 Int) (i2 Int) (i3 Int) (i4 Int)) (=> (and (assign_18_1_151_abs i3 (select dest i3) i3 (select dest i3) i1 (select source i1) i1 (select source i1) l i) (assign_18_1_151_abs i3 (select dest i3) i3 (select dest i3) i1 (select source i1) i2 (select source i2) l i) (assign_18_1_151_abs i3 (select dest i3) i3 (select dest i3) i2 (select source i2) i1 (select source i1) l i) (assign_18_1_151_abs i3 (select dest i3) i3 (select dest i3) i2 (select source i2) i2 (select source i2) l i) (assign_18_1_151_abs i3 (select dest i3) i4 (select dest i4) i1 (select source i1) i1 (select source i1) l i) (assign_18_1_151_abs i3 (select dest i3) i4 (select dest i4) i1 (select source i1) i2 (select source i2) l i) (assign_18_1_151_abs i3 (select dest i3) i4 (select dest i4) i2 (select source i2) i1 (select source i1) l i) (assign_18_1_151_abs i3 (select dest i3) i4 (select dest i4) i2 (select source i2) i2 (select source i2) l i) (assign_18_1_151_abs i4 (select dest i4) i3 (select dest i3) i1 (select source i1) i1 (select source i1) l i) (assign_18_1_151_abs i4 (select dest i4) i3 (select dest i3) i1 (select source i1) i2 (select source i2) l i) (assign_18_1_151_abs i4 (select dest i4) i3 (select dest i3) i2 (select source i2) i1 (select source i1) l i) (assign_18_1_151_abs i4 (select dest i4) i3 (select dest i3) i2 (select source i2) i2 (select source i2) l i) (assign_18_1_151_abs i4 (select dest i4) i4 (select dest i4) i1 (select source i1) i1 (select source i1) l i) (assign_18_1_151_abs i4 (select dest i4) i4 (select dest i4) i1 (select source i1) i2 (select source i2) l i) (assign_18_1_151_abs i4 (select dest i4) i4 (select dest i4) i2 (select source i2) i1 (select source i1) l i) (assign_18_1_151_abs i4 (select dest i4) i4 (select dest i4) i2 (select source i2) i2 (select source i2) l i)) (assign_20_8_187_abs i4 (select dest i4) i3 (select dest i3) i2 (select source i2) i1 (select source i1) i i))))
;
;(assign)  i := 0
(assert (forall ( (i Int) (l Int) (source (Array Int Int)) (dest (Array Int Int)) (i1 Int) (i2 Int) (i3 Int) (i4 Int)) (=> (and (assign_20_8_187_abs i3 (select dest i3) i3 (select dest i3) i1 (select source i1) i1 (select source i1) l i) (assign_20_8_187_abs i3 (select dest i3) i3 (select dest i3) i1 (select source i1) i2 (select source i2) l i) (assign_20_8_187_abs i3 (select dest i3) i3 (select dest i3) i2 (select source i2) i1 (select source i1) l i) (assign_20_8_187_abs i3 (select dest i3) i3 (select dest i3) i2 (select source i2) i2 (select source i2) l i) (assign_20_8_187_abs i3 (select dest i3) i4 (select dest i4) i1 (select source i1) i1 (select source i1) l i) (assign_20_8_187_abs i3 (select dest i3) i4 (select dest i4) i1 (select source i1) i2 (select source i2) l i) (assign_20_8_187_abs i3 (select dest i3) i4 (select dest i4) i2 (select source i2) i1 (select source i1) l i) (assign_20_8_187_abs i3 (select dest i3) i4 (select dest i4) i2 (select source i2) i2 (select source i2) l i) (assign_20_8_187_abs i4 (select dest i4) i3 (select dest i3) i1 (select source i1) i1 (select source i1) l i) (assign_20_8_187_abs i4 (select dest i4) i3 (select dest i3) i1 (select source i1) i2 (select source i2) l i) (assign_20_8_187_abs i4 (select dest i4) i3 (select dest i3) i2 (select source i2) i1 (select source i1) l i) (assign_20_8_187_abs i4 (select dest i4) i3 (select dest i3) i2 (select source i2) i2 (select source i2) l i) (assign_20_8_187_abs i4 (select dest i4) i4 (select dest i4) i1 (select source i1) i1 (select source i1) l i) (assign_20_8_187_abs i4 (select dest i4) i4 (select dest i4) i1 (select source i1) i2 (select source i2) l i) (assign_20_8_187_abs i4 (select dest i4) i4 (select dest i4) i2 (select source i2) i1 (select source i1) l i) (assign_20_8_187_abs i4 (select dest i4) i4 (select dest i4) i2 (select source i2) i2 (select source i2) l i)) (while_22_8_285_abs i4 (select dest i4) i3 (select dest i3) i2 (select source i2) i1 (select source i1) l 0))))
;
;(while)   while((i<l))
(assert (forall ( (dest (Array Int Int)) (source (Array Int Int)) (l Int) (i Int) (i1 Int) (i2 Int) (i3 Int) (i4 Int)) (=> (and (while_22_8_285_abs i3 (select dest i3) i3 (select dest i3) i1 (select source i1) i1 (select source i1) l i) (while_22_8_285_abs i3 (select dest i3) i3 (select dest i3) i1 (select source i1) i2 (select source i2) l i) (while_22_8_285_abs i3 (select dest i3) i3 (select dest i3) i2 (select source i2) i1 (select source i1) l i) (while_22_8_285_abs i3 (select dest i3) i3 (select dest i3) i2 (select source i2) i2 (select source i2) l i) (while_22_8_285_abs i3 (select dest i3) i4 (select dest i4) i1 (select source i1) i1 (select source i1) l i) (while_22_8_285_abs i3 (select dest i3) i4 (select dest i4) i1 (select source i1) i2 (select source i2) l i) (while_22_8_285_abs i3 (select dest i3) i4 (select dest i4) i2 (select source i2) i1 (select source i1) l i) (while_22_8_285_abs i3 (select dest i3) i4 (select dest i4) i2 (select source i2) i2 (select source i2) l i) (while_22_8_285_abs i4 (select dest i4) i3 (select dest i3) i1 (select source i1) i1 (select source i1) l i) (while_22_8_285_abs i4 (select dest i4) i3 (select dest i3) i1 (select source i1) i2 (select source i2) l i) (while_22_8_285_abs i4 (select dest i4) i3 (select dest i3) i2 (select source i2) i1 (select source i1) l i) (while_22_8_285_abs i4 (select dest i4) i3 (select dest i3) i2 (select source i2) i2 (select source i2) l i) (while_22_8_285_abs i4 (select dest i4) i4 (select dest i4) i1 (select source i1) i1 (select source i1) l i) (while_22_8_285_abs i4 (select dest i4) i4 (select dest i4) i1 (select source i1) i2 (select source i2) l i) (while_22_8_285_abs i4 (select dest i4) i4 (select dest i4) i2 (select source i2) i1 (select source i1) l i) (while_22_8_285_abs i4 (select dest i4) i4 (select dest i4) i2 (select source i2) i2 (select source i2) l i) (< i l)) (assert_25_3_273_abs i4 (select dest i4) i3 (select dest i3) i2 (select source i2) i1 (select source i1) l i))))
(assert (forall ( (dest (Array Int Int)) (source (Array Int Int)) (l Int) (i Int) (i1 Int) (i2 Int) (i3 Int) (i4 Int)) (=> (and (while_22_8_285_abs i3 (select dest i3) i3 (select dest i3) i1 (select source i1) i1 (select source i1) l i) (while_22_8_285_abs i3 (select dest i3) i3 (select dest i3) i1 (select source i1) i2 (select source i2) l i) (while_22_8_285_abs i3 (select dest i3) i3 (select dest i3) i2 (select source i2) i1 (select source i1) l i) (while_22_8_285_abs i3 (select dest i3) i3 (select dest i3) i2 (select source i2) i2 (select source i2) l i) (while_22_8_285_abs i3 (select dest i3) i4 (select dest i4) i1 (select source i1) i1 (select source i1) l i) (while_22_8_285_abs i3 (select dest i3) i4 (select dest i4) i1 (select source i1) i2 (select source i2) l i) (while_22_8_285_abs i3 (select dest i3) i4 (select dest i4) i2 (select source i2) i1 (select source i1) l i) (while_22_8_285_abs i3 (select dest i3) i4 (select dest i4) i2 (select source i2) i2 (select source i2) l i) (while_22_8_285_abs i4 (select dest i4) i3 (select dest i3) i1 (select source i1) i1 (select source i1) l i) (while_22_8_285_abs i4 (select dest i4) i3 (select dest i3) i1 (select source i1) i2 (select source i2) l i) (while_22_8_285_abs i4 (select dest i4) i3 (select dest i3) i2 (select source i2) i1 (select source i1) l i) (while_22_8_285_abs i4 (select dest i4) i3 (select dest i3) i2 (select source i2) i2 (select source i2) l i) (while_22_8_285_abs i4 (select dest i4) i4 (select dest i4) i1 (select source i1) i1 (select source i1) l i) (while_22_8_285_abs i4 (select dest i4) i4 (select dest i4) i1 (select source i1) i2 (select source i2) l i) (while_22_8_285_abs i4 (select dest i4) i4 (select dest i4) i2 (select source i2) i1 (select source i1) l i) (while_22_8_285_abs i4 (select dest i4) i4 (select dest i4) i2 (select source i2) i2 (select source i2) l i) (not (< i l))) (end_abs i4 (select dest i4) i3 (select dest i3) i2 (select source i2) i1 (select source i1) l i))))
;
;(assert)  (source[i]==dest[i])
(assert (forall ( (i Int) (l Int) (source (Array Int Int)) (dest (Array Int Int))) (=> (assert_25_3_273_abs i (select dest i) i (select dest i) i (select source i) i (select source i) l i) (= (select dest i) (select source i)))))
(assert (forall ( (i Int) (l Int) (source (Array Int Int)) (dest (Array Int Int)) (i1 Int) (i2 Int) (i3 Int) (i4 Int)) (=> (and (assert_25_3_273_abs i3 (select dest i3) i3 (select dest i3) i1 (select source i1) i1 (select source i1) l i) (assert_25_3_273_abs i3 (select dest i3) i3 (select dest i3) i1 (select source i1) i2 (select source i2) l i) (assert_25_3_273_abs i3 (select dest i3) i3 (select dest i3) i2 (select source i2) i1 (select source i1) l i) (assert_25_3_273_abs i3 (select dest i3) i3 (select dest i3) i2 (select source i2) i2 (select source i2) l i) (assert_25_3_273_abs i3 (select dest i3) i4 (select dest i4) i1 (select source i1) i1 (select source i1) l i) (assert_25_3_273_abs i3 (select dest i3) i4 (select dest i4) i1 (select source i1) i2 (select source i2) l i) (assert_25_3_273_abs i3 (select dest i3) i4 (select dest i4) i2 (select source i2) i1 (select source i1) l i) (assert_25_3_273_abs i3 (select dest i3) i4 (select dest i4) i2 (select source i2) i2 (select source i2) l i) (assert_25_3_273_abs i4 (select dest i4) i3 (select dest i3) i1 (select source i1) i1 (select source i1) l i) (assert_25_3_273_abs i4 (select dest i4) i3 (select dest i3) i1 (select source i1) i2 (select source i2) l i) (assert_25_3_273_abs i4 (select dest i4) i3 (select dest i3) i2 (select source i2) i1 (select source i1) l i) (assert_25_3_273_abs i4 (select dest i4) i3 (select dest i3) i2 (select source i2) i2 (select source i2) l i) (assert_25_3_273_abs i4 (select dest i4) i4 (select dest i4) i1 (select source i1) i1 (select source i1) l i) (assert_25_3_273_abs i4 (select dest i4) i4 (select dest i4) i1 (select source i1) i2 (select source i2) l i) (assert_25_3_273_abs i4 (select dest i4) i4 (select dest i4) i2 (select source i2) i1 (select source i1) l i) (assert_25_3_273_abs i4 (select dest i4) i4 (select dest i4) i2 (select source i2) i2 (select source i2) l i)) (assign_26_10_282_abs i4 (select dest i4) i3 (select dest i3) i2 (select source i2) i1 (select source i1) l i))))
;
;(assign)  i := (i+1)
(assert (forall ( (i Int) (l Int) (source (Array Int Int)) (dest (Array Int Int)) (i1 Int) (i2 Int) (i3 Int) (i4 Int)) (=> (and (assign_26_10_282_abs i3 (select dest i3) i3 (select dest i3) i1 (select source i1) i1 (select source i1) l i) (assign_26_10_282_abs i3 (select dest i3) i3 (select dest i3) i1 (select source i1) i2 (select source i2) l i) (assign_26_10_282_abs i3 (select dest i3) i3 (select dest i3) i2 (select source i2) i1 (select source i1) l i) (assign_26_10_282_abs i3 (select dest i3) i3 (select dest i3) i2 (select source i2) i2 (select source i2) l i) (assign_26_10_282_abs i3 (select dest i3) i4 (select dest i4) i1 (select source i1) i1 (select source i1) l i) (assign_26_10_282_abs i3 (select dest i3) i4 (select dest i4) i1 (select source i1) i2 (select source i2) l i) (assign_26_10_282_abs i3 (select dest i3) i4 (select dest i4) i2 (select source i2) i1 (select source i1) l i) (assign_26_10_282_abs i3 (select dest i3) i4 (select dest i4) i2 (select source i2) i2 (select source i2) l i) (assign_26_10_282_abs i4 (select dest i4) i3 (select dest i3) i1 (select source i1) i1 (select source i1) l i) (assign_26_10_282_abs i4 (select dest i4) i3 (select dest i3) i1 (select source i1) i2 (select source i2) l i) (assign_26_10_282_abs i4 (select dest i4) i3 (select dest i3) i2 (select source i2) i1 (select source i1) l i) (assign_26_10_282_abs i4 (select dest i4) i3 (select dest i3) i2 (select source i2) i2 (select source i2) l i) (assign_26_10_282_abs i4 (select dest i4) i4 (select dest i4) i1 (select source i1) i1 (select source i1) l i) (assign_26_10_282_abs i4 (select dest i4) i4 (select dest i4) i1 (select source i1) i2 (select source i2) l i) (assign_26_10_282_abs i4 (select dest i4) i4 (select dest i4) i2 (select source i2) i1 (select source i1) l i) (assign_26_10_282_abs i4 (select dest i4) i4 (select dest i4) i2 (select source i2) i2 (select source i2) l i)) (while_22_8_285_abs i4 (select dest i4) i3 (select dest i3) i2 (select source i2) i1 (select source i1) l (+ i 1)))))
(check-sat)
